NAME : STSP_100-1over3
COMMENT : Length = 919
COMMENT : Found by LKH-3 [Keld Helsgaun]
TYPE : TOUR
DIMENSION : 33
TOUR_SECTION
23
70
78
48
90
40
12
71
61
1
61
93
3
37
63
86
63
73
99
51
15
21
75
21
15
4
28
17
28
72
79
34
60
6
42
52
30
47
62
58
39
43
22
33
100
35
56
16
59
19
83
81
94
81
83
19
29
65
18
85
67
32
25
64
80
41
44
55
24
74
76
46
26
-1
EOF
